Generated by cif2cell 1.2.10.  :  Failed to get author information, No journal information.
 1.0
  4.024600000000000   0.000000000000000   0.000000000000000
  4.024600000000001   6.970811680141704   0.000000000000000
 10.061500000000002   5.809009733451421  16.430360698008634
  Mn  Li   O  Ti
   3   6  10   1
Direct
  0.000000000000000   0.000000000000000   0.000000000000000 
  0.000000000000000   0.500000000000000   0.200000000000000 
  0.000000000000000   0.500000000000000   0.600000000000000 
  0.000000000000000   0.000000000000000   0.200000000000000 
  0.000000000000000   0.000000000000000   0.600000000000000 
  0.000000000000000   0.000000000000000   0.800000000000000 
  0.000000000000000   0.500000000000000   0.000000000000000 
  0.000000000000000   0.500000000000000   0.400000000000000 
  0.000000000000000   0.500000000000000   0.800000000000000 
  0.500000000000000   0.250000000000000   0.900000000000000 
  0.500000000000000   0.750000000000000   0.700000000000000 
  0.500000000000000   0.750000000000000   0.900000000000000 
  0.500000000000000   0.250000000000000   0.100000000000000 
  0.500000000000000   0.250000000000000   0.300000000000000 
  0.500000000000000   0.250000000000000   0.500000000000000 
  0.500000000000000   0.250000000000000   0.700000000000000 
  0.500000000000000   0.750000000000000   0.100000000000000 
  0.500000000000000   0.750000000000000   0.300000000000000 
  0.500000000000000   0.750000000000000   0.500000000000000 
  0.000000000000000   0.000000000000000   0.400000000000000 
