WJQIU: ID: 20    Enthalpy: -6.6900    Volume: 12.0035    ##EA20    5.054  9.243  9.027 78.95 144.30 95.34 Sym.group:    1
1.0000
    5.038902    -0.249225    -0.300712
   -0.350796     9.185745     0.968574
   -6.971562     0.877833     5.667609
  Li  Mn Ti  O
   4    3 1  12 
Direct
    0.118685     0.934516     0.588724
    0.404126     0.672177     0.540524
    0.817777     0.235204     0.888136
    0.983231     0.435759     0.616908
    0.637250     0.987197     0.047392
    0.453517     0.690327     0.948513
    0.067494     0.854304     0.013359
    0.049894     0.503802     0.057023
    0.702145     0.027382     0.862352
    0.122568     0.891752     0.814789
    0.612937     0.946981     0.241104
    0.971185     0.616531     0.699795
    0.894571     0.530908     0.168981
    0.029333     0.811954     0.211322
    0.222459     0.277235     0.905738
    0.452565     0.187954     0.929020
    0.586182     0.452276     0.771221
    0.441513     0.357798     0.275030
    0.393098     0.654775     0.140716
    0.539468     0.757006     0.779355
